15 16
46 33
17 39
7 45
21 40
52 27
37 22.5
43 27.5
20 31.5
41 19.5
35 58.5
51 21.5
23 17.5
6 33
16 51
37 54
25 65
9 47
54 28
49 33
22 53.5
47 68.5
48 59.5
26 51.5
15 39.5
39 77.5
54 69.5
21 81
11 58
34 97
3 94
52 98
42 88
46 93
45 83.5
28 91.5
44 85.5
43 91.5
15 107.5
54 87.5
35 86.5
24 113
28 110
10 98
30 100
39 93
52 114
52 109
38 90.5
31 124.5
